NAME : zqloutput/eax-hard-simple-rescaleandround/50-100.tsp
TYPE : TSP
DIMENSION : 50
EDGE_WEIGHT_TYPE : EUC_2D
NODE_COORD_SECTION
1 162190 261448
2 707101 435017
3 163434 184101
4 67923 741717
5 313386 280122
6 614816 99481
7 504420 728933
8 395883 59684
9 234728 211036
10 825962 587426
11 987353 457540
12 290748 857372
13 818417 936021
14 572652 228966
15 933477 57985
16 5748 568688
17 380150 597201
18 710723 687088
19 799554 624896
20 514149 334724
21 15384 90216
22 446763 130181
23 433389 241270
24 360122 924061
25 815677 958785
26 603402 323209
27 484648 80365
28 63715 867355
29 941272 193106
30 149884 255165
31 636000 237626
32 26702 248304
33 482980 517176
34 469847 130834
35 191745 693687
36 744966 516718
37 113275 41547
38 616292 176653
39 889279 794396
40 581591 240538
41 353203 19738
42 948079 837721
43 255715 235033
44 927598 459127
45 315610 828955
46 844565 287870
47 988861 712863
48 618716 120424
49 701054 702107
50 885360 540796
EOF
